(declare-datatypes ((_tuple_2 0)) (((_tuple_2 (__f1 Int)))))
(declare-datatypes ((_enum_0 0)) (((Timer_reaction_0) (NULL))))
(declare-datatypes ((_tuple_0 0)) (((_tuple_0 (__f1 Int) (__f2 Int)))))
(declare-datatypes ((_tuple_1 0)) (((_tuple_1 (__f1 _enum_0) (__f2 _tuple_0) (__f3 _tuple_2)))))
(declare-datatypes ((_tuple_3 0)) (((_tuple_3 (__f1 _tuple_1) (__f2 _tuple_1) (__f3 _tuple_1) (__f4 _tuple_1) (__f5 _tuple_1) (__f6 _tuple_1) (__f7 _tuple_1) (__f8 _tuple_1) (__f9 _tuple_1) (__f10 _tuple_1)))))
(declare-fun initial_2_trace () _tuple_3)
(declare-fun initial_1_start () Int)
(assert (forall ((i Int))
  (! (let ((a!1 (not (and (not (<= i 0)) (<= i 9))))
           (a!2 (ite (= i 8)
                     (__f9 initial_2_trace)
                     (ite (= i 9)
                          (__f10 initial_2_trace)
                          (_tuple_1 NULL (_tuple_0 (- 1) 0) (_tuple_2 0))))))
     (let ((a!3 (ite (= i 5)
                     (__f6 initial_2_trace)
                     (ite (= i 6)
                          (__f7 initial_2_trace)
                          (ite (= i 7) (__f8 initial_2_trace) a!2)))))
     (let ((a!4 (ite (= i 2)
                     (__f3 initial_2_trace)
                     (ite (= i 3)
                          (__f4 initial_2_trace)
                          (ite (= i 4) (__f5 initial_2_trace) a!3)))))
     (let ((a!5 (__f2 (ite (= i 0)
                           (__f1 initial_2_trace)
                           (ite (= i 1) (__f2 initial_2_trace) a!4)))))
       (or a!1 (>= (__f2 a!5) 0))))))
     :skolemid _skolem_0
     :qid _forall_0)))
(assert (forall ((j Int))
  (! (let ((a!1 (not (and (not (<= j 0)) (<= j 9))))
           (a!2 (ite (= j 8)
                     (__f9 initial_2_trace)
                     (ite (= j 9)
                          (__f10 initial_2_trace)
                          (_tuple_1 NULL (_tuple_0 (- 1) 0) (_tuple_2 0)))))
           (a!6 (forall ((i Int))
                  (! (let ((a!1 (not (and (not (<= i 0)) (not (<= j i)))))
                           (a!2 (ite (= i 8)
                                     (__f9 initial_2_trace)
                                     (ite (= i 9)
                                          (__f10 initial_2_trace)
                                          (_tuple_1 NULL
                                                    (_tuple_0 (- 1) 0)
                                                    (_tuple_2 0))))))
                     (let ((a!3 (ite (= i 5)
                                     (__f6 initial_2_trace)
                                     (ite (= i 6)
                                          (__f7 initial_2_trace)
                                          (ite (= i 7)
                                               (__f8 initial_2_trace)
                                               a!2)))))
                     (let ((a!4 (ite (= i 2)
                                     (__f3 initial_2_trace)
                                     (ite (= i 3)
                                          (__f4 initial_2_trace)
                                          (ite (= i 4)
                                               (__f5 initial_2_trace)
                                               a!3)))))
                     (let ((a!5 (__f1 (ite (= i 0)
                                           (__f1 initial_2_trace)
                                           (ite (= i 1)
                                                (__f2 initial_2_trace)
                                                a!4)))))
                       (or a!1 (not (= a!5 NULL)))))))
                     :skolemid _skolem_1
                     :qid _forall_1))))
     (let ((a!3 (ite (= j 5)
                     (__f6 initial_2_trace)
                     (ite (= j 6)
                          (__f7 initial_2_trace)
                          (ite (= j 7) (__f8 initial_2_trace) a!2)))))
     (let ((a!4 (ite (= j 2)
                     (__f3 initial_2_trace)
                     (ite (= j 3)
                          (__f4 initial_2_trace)
                          (ite (= j 4) (__f5 initial_2_trace) a!3)))))
     (let ((a!5 (__f1 (ite (= j 0)
                           (__f1 initial_2_trace)
                           (ite (= j 1) (__f2 initial_2_trace) a!4)))))
       (or a!1 (= a!5 NULL) a!6)))))
     :skolemid _skolem_2
     :qid _forall_2)))
(assert true)
(assert (forall ((i Int) (j Int))
  (! (let ((a!1 (ite (= i 8)
                     (__f9 initial_2_trace)
                     (ite (= i 9)
                          (__f10 initial_2_trace)
                          (_tuple_1 NULL (_tuple_0 (- 1) 0) (_tuple_2 0)))))
           (a!5 (ite (= j 8)
                     (__f9 initial_2_trace)
                     (ite (= j 9)
                          (__f10 initial_2_trace)
                          (_tuple_1 NULL (_tuple_0 (- 1) 0) (_tuple_2 0))))))
     (let ((a!2 (ite (= i 5)
                     (__f6 initial_2_trace)
                     (ite (= i 6)
                          (__f7 initial_2_trace)
                          (ite (= i 7) (__f8 initial_2_trace) a!1))))
           (a!6 (ite (= j 5)
                     (__f6 initial_2_trace)
                     (ite (= j 6)
                          (__f7 initial_2_trace)
                          (ite (= j 7) (__f8 initial_2_trace) a!5)))))
     (let ((a!3 (ite (= i 2)
                     (__f3 initial_2_trace)
                     (ite (= i 3)
                          (__f4 initial_2_trace)
                          (ite (= i 4) (__f5 initial_2_trace) a!2))))
           (a!7 (ite (= j 2)
                     (__f3 initial_2_trace)
                     (ite (= j 3)
                          (__f4 initial_2_trace)
                          (ite (= j 4) (__f5 initial_2_trace) a!6)))))
     (let ((a!4 (ite (= i 0)
                     (__f1 initial_2_trace)
                     (ite (= i 1) (__f2 initial_2_trace) a!3)))
           (a!8 (ite (= j 0)
                     (__f1 initial_2_trace)
                     (ite (= j 1) (__f2 initial_2_trace) a!7))))
     (let ((a!9 (not (and (= (__f1 a!4) (__f1 a!8)) (not (= i j))))))
       (or (not (and (>= i 0) (<= i 9) (>= j 0) (<= j 9)))
           a!9
           (not (= (__f2 a!4) (__f2 a!8)))))))))
     :skolemid _skolem_4
     :qid _forall_4)))
(assert (forall ((i Int))
  (! (let ((a!1 (not (and (not (<= i 0)) (<= i 9))))
           (a!2 (ite (= i 8)
                     (__f9 initial_2_trace)
                     (ite (= i 9)
                          (__f10 initial_2_trace)
                          (_tuple_1 NULL (_tuple_0 (- 1) 0) (_tuple_2 0))))))
     (let ((a!3 (ite (= i 5)
                     (__f6 initial_2_trace)
                     (ite (= i 6)
                          (__f7 initial_2_trace)
                          (ite (= i 7) (__f8 initial_2_trace) a!2)))))
     (let ((a!4 (ite (= i 2)
                     (__f3 initial_2_trace)
                     (ite (= i 3)
                          (__f4 initial_2_trace)
                          (ite (= i 4) (__f5 initial_2_trace) a!3)))))
     (let ((a!5 (__f2 (ite (= i 0)
                           (__f1 initial_2_trace)
                           (ite (= i 1) (__f2 initial_2_trace) a!4)))))
       (or a!1 (>= (__f1 a!5) 0))))))
     :skolemid _skolem_5
     :qid _forall_5)))
(assert (forall ((i Int))
  (! (let ((a!1 (not (and (not (<= i 0)) (<= i 9))))
           (a!2 (ite (= i 8)
                     (__f9 initial_2_trace)
                     (ite (= i 9)
                          (__f10 initial_2_trace)
                          (_tuple_1 NULL (_tuple_0 (- 1) 0) (_tuple_2 0))))))
     (let ((a!3 (ite (= i 5)
                     (__f6 initial_2_trace)
                     (ite (= i 6)
                          (__f7 initial_2_trace)
                          (ite (= i 7) (__f8 initial_2_trace) a!2)))))
     (let ((a!4 (ite (= i 2)
                     (__f3 initial_2_trace)
                     (ite (= i 3)
                          (__f4 initial_2_trace)
                          (ite (= i 4) (__f5 initial_2_trace) a!3)))))
     (let ((a!5 (__f2 (ite (= i 0)
                           (__f1 initial_2_trace)
                           (ite (= i 1) (__f2 initial_2_trace) a!4)))))
     (let ((a!6 (and (not (<= 0 (__f1 a!5))) (<= 0 initial_1_start)))
           (a!7 (and (= (__f1 a!5) initial_1_start) (not (<= (__f2 a!5) 0)))))
       (or a!1
           a!6
           a!7
           (not (<= (__f1 a!5) initial_1_start))
           (= a!5 (_tuple_0 initial_1_start 0))))))))
     :skolemid _skolem_6
     :qid _forall_6)))
(assert (let ((a!1 (exists ((i Int))
             (! (let ((a!1 (ite (= i 8)
                                (__f9 initial_2_trace)
                                (ite (= i 9)
                                     (__f10 initial_2_trace)
                                     (_tuple_1 NULL
                                               (_tuple_0 (- 1) 0)
                                               (_tuple_2 0)))))
                      (a!5 (exists ((c Int))
                             (! (let ((a!1 (ite (= i 8)
                                                (__f9 initial_2_trace)
                                                (ite (= i 9)
                                                     (__f10 initial_2_trace)
                                                     (_tuple_1 NULL
                                                               (_tuple_0 (- 1)
                                                                         0)
                                                               (_tuple_2 0)))))
                                      (a!5 (not (<= initial_1_start
                                                    (+ (- 1000000000)
                                                       (* 1000000000 c))))))
                                (let ((a!2 (ite (= i 5)
                                                (__f6 initial_2_trace)
                                                (ite (= i 6)
                                                     (__f7 initial_2_trace)
                                                     (ite (= i 7)
                                                          (__f8 initial_2_trace)
                                                          a!1)))))
                                (let ((a!3 (ite (= i 2)
                                                (__f3 initial_2_trace)
                                                (ite (= i 3)
                                                     (__f4 initial_2_trace)
                                                     (ite (= i 4)
                                                          (__f5 initial_2_trace)
                                                          a!2)))))
                                (let ((a!4 (ite (= i 0)
                                                (__f1 initial_2_trace)
                                                (ite (= i 1)
                                                     (__f2 initial_2_trace)
                                                     a!3))))
                                  (and (= (* 1000000000 c) (__f1 (__f2 a!4)))
                                       a!5)))))
                                :skolemid _skolem_7
                                :qid _exists_0))))
                (let ((a!2 (ite (= i 5)
                                (__f6 initial_2_trace)
                                (ite (= i 6)
                                     (__f7 initial_2_trace)
                                     (ite (= i 7) (__f8 initial_2_trace) a!1)))))
                (let ((a!3 (ite (= i 2)
                                (__f3 initial_2_trace)
                                (ite (= i 3)
                                     (__f4 initial_2_trace)
                                     (ite (= i 4) (__f5 initial_2_trace) a!2)))))
                (let ((a!4 (ite (= i 0)
                                (__f1 initial_2_trace)
                                (ite (= i 1) (__f2 initial_2_trace) a!3))))
                  (and (>= i 0)
                       (<= i 9)
                       (= (__f1 a!4) Timer_reaction_0)
                       a!5
                       (= (__f2 (__f2 a!4)) 0))))))
                :skolemid _skolem_8
                :qid _exists_1)))
      (a!2 (forall ((i Int) (j Int))
             (! (let ((a!1 (ite (= i 8)
                                (__f9 initial_2_trace)
                                (ite (= i 9)
                                     (__f10 initial_2_trace)
                                     (_tuple_1 NULL
                                               (_tuple_0 (- 1) 0)
                                               (_tuple_2 0)))))
                      (a!5 (ite (= j 8)
                                (__f9 initial_2_trace)
                                (ite (= j 9)
                                     (__f10 initial_2_trace)
                                     (_tuple_1 NULL
                                               (_tuple_0 (- 1) 0)
                                               (_tuple_2 0)))))
                      (a!9 (exists ((k Int))
                             (! (let ((a!1 (ite (= k 8)
                                                (__f9 initial_2_trace)
                                                (ite (= k 9)
                                                     (__f10 initial_2_trace)
                                                     (_tuple_1 NULL
                                                               (_tuple_0 (- 1)
                                                                         0)
                                                               (_tuple_2 0))))))
                                (let ((a!2 (ite (= k 5)
                                                (__f6 initial_2_trace)
                                                (ite (= k 6)
                                                     (__f7 initial_2_trace)
                                                     (ite (= k 7)
                                                          (__f8 initial_2_trace)
                                                          a!1)))))
                                (let ((a!3 (ite (= k 2)
                                                (__f3 initial_2_trace)
                                                (ite (= k 3)
                                                     (__f4 initial_2_trace)
                                                     (ite (= k 4)
                                                          (__f5 initial_2_trace)
                                                          a!2)))))
                                (let ((a!4 (ite (= k 0)
                                                (__f1 initial_2_trace)
                                                (ite (= k 1)
                                                     (__f2 initial_2_trace)
                                                     a!3))))
                                  (and (= (__f1 a!4) Timer_reaction_0)
                                       (not (<= k i))
                                       (not (<= j k)))))))
                                :skolemid _skolem_9
                                :qid _exists_2))))
                (let ((a!2 (ite (= i 5)
                                (__f6 initial_2_trace)
                                (ite (= i 6)
                                     (__f7 initial_2_trace)
                                     (ite (= i 7) (__f8 initial_2_trace) a!1))))
                      (a!6 (ite (= j 5)
                                (__f6 initial_2_trace)
                                (ite (= j 6)
                                     (__f7 initial_2_trace)
                                     (ite (= j 7) (__f8 initial_2_trace) a!5)))))
                (let ((a!3 (ite (= i 2)
                                (__f3 initial_2_trace)
                                (ite (= i 3)
                                     (__f4 initial_2_trace)
                                     (ite (= i 4) (__f5 initial_2_trace) a!2))))
                      (a!7 (ite (= j 2)
                                (__f3 initial_2_trace)
                                (ite (= j 3)
                                     (__f4 initial_2_trace)
                                     (ite (= j 4) (__f5 initial_2_trace) a!6)))))
                (let ((a!4 (ite (= i 0)
                                (__f1 initial_2_trace)
                                (ite (= i 1) (__f2 initial_2_trace) a!3)))
                      (a!8 (ite (= j 0)
                                (__f1 initial_2_trace)
                                (ite (= j 1) (__f2 initial_2_trace) a!7))))
                (let ((a!10 (not (and (>= i 0)
                                      (<= i 9)
                                      (>= j 0)
                                      (<= j 9)
                                      (not (<= j i))
                                      (= (__f1 a!4) Timer_reaction_0)
                                      (= (__f1 a!8) Timer_reaction_0)
                                      (not a!9))))
                      (a!11 (_tuple_0 (+ 1000000000 (__f1 (__f2 a!4))) 0)))
                (let ((a!12 (ite (<= 0 (__f1 (__f2 a!4)))
                                 a!11
                                 (_tuple_0 (- 1) 0))))
                  (or a!10 (= (__f2 a!8) a!12))))))))
                :skolemid _skolem_10
                :qid _forall_7)))
      (a!3 (exists ((b Int) (a Int))
             (! (let ((a!1 (ite (= b 8)
                                (__f9 initial_2_trace)
                                (ite (= b 9)
                                     (__f10 initial_2_trace)
                                     (_tuple_1 NULL
                                               (_tuple_0 (- 1) 0)
                                               (_tuple_2 0)))))
                      (a!5 (ite (= a 8)
                                (__f9 initial_2_trace)
                                (ite (= a 9)
                                     (__f10 initial_2_trace)
                                     (_tuple_1 NULL
                                               (_tuple_0 (- 1) 0)
                                               (_tuple_2 0)))))
                      (a!9 (exists ((c Int))
                             (! (let ((a!1 (ite (= c 8)
                                                (__f9 initial_2_trace)
                                                (ite (= c 9)
                                                     (__f10 initial_2_trace)
                                                     (_tuple_1 NULL
                                                               (_tuple_0 (- 1)
                                                                         0)
                                                               (_tuple_2 0)))))
                                      (a!5 (ite (= a 8)
                                                (__f9 initial_2_trace)
                                                (ite (= a 9)
                                                     (__f10 initial_2_trace)
                                                     (_tuple_1 NULL
                                                               (_tuple_0 (- 1)
                                                                         0)
                                                               (_tuple_2 0))))))
                                (let ((a!2 (ite (= c 5)
                                                (__f6 initial_2_trace)
                                                (ite (= c 6)
                                                     (__f7 initial_2_trace)
                                                     (ite (= c 7)
                                                          (__f8 initial_2_trace)
                                                          a!1))))
                                      (a!6 (ite (= a 5)
                                                (__f6 initial_2_trace)
                                                (ite (= a 6)
                                                     (__f7 initial_2_trace)
                                                     (ite (= a 7)
                                                          (__f8 initial_2_trace)
                                                          a!5)))))
                                (let ((a!3 (ite (= c 2)
                                                (__f3 initial_2_trace)
                                                (ite (= c 3)
                                                     (__f4 initial_2_trace)
                                                     (ite (= c 4)
                                                          (__f5 initial_2_trace)
                                                          a!2))))
                                      (a!7 (ite (= a 2)
                                                (__f3 initial_2_trace)
                                                (ite (= a 3)
                                                     (__f4 initial_2_trace)
                                                     (ite (= a 4)
                                                          (__f5 initial_2_trace)
                                                          a!6)))))
                                (let ((a!4 (ite (= c 0)
                                                (__f1 initial_2_trace)
                                                (ite (= c 1)
                                                     (__f2 initial_2_trace)
                                                     a!3)))
                                      (a!8 (ite (= a 0)
                                                (__f1 initial_2_trace)
                                                (ite (= a 1)
                                                     (__f2 initial_2_trace)
                                                     a!7))))
                                  (and (>= c 0)
                                       (<= c 9)
                                       (= (__f1 a!4) (__f1 a!8))
                                       (not (<= c a))
                                       (not (<= b c)))))))
                                :skolemid _skolem_11
                                :qid _exists_3))))
                (let ((a!2 (ite (= b 5)
                                (__f6 initial_2_trace)
                                (ite (= b 6)
                                     (__f7 initial_2_trace)
                                     (ite (= b 7) (__f8 initial_2_trace) a!1))))
                      (a!6 (ite (= a 5)
                                (__f6 initial_2_trace)
                                (ite (= a 6)
                                     (__f7 initial_2_trace)
                                     (ite (= a 7) (__f8 initial_2_trace) a!5)))))
                (let ((a!3 (ite (= b 2)
                                (__f3 initial_2_trace)
                                (ite (= b 3)
                                     (__f4 initial_2_trace)
                                     (ite (= b 4) (__f5 initial_2_trace) a!2))))
                      (a!7 (ite (= a 2)
                                (__f3 initial_2_trace)
                                (ite (= a 3)
                                     (__f4 initial_2_trace)
                                     (ite (= a 4) (__f5 initial_2_trace) a!6)))))
                (let ((a!4 (ite (= b 0)
                                (__f1 initial_2_trace)
                                (ite (= b 1) (__f2 initial_2_trace) a!3)))
                      (a!8 (ite (= a 0)
                                (__f1 initial_2_trace)
                                (ite (= a 1) (__f2 initial_2_trace) a!7))))
                (let ((a!10 (not (<= 0 (__f1 (__f2 a!4)))))
                      (a!11 (_tuple_0 (+ 1000000000 (__f1 (__f2 a!8))) 0)))
                (let ((a!12 (ite (<= 0 (__f1 (__f2 a!8)))
                                 a!11
                                 (_tuple_0 (- 1) 0))))
                (let ((a!13 (not (<= (__f2 (__f2 a!4)) (__f2 a!12))))
                      (a!15 (not (<= (__f1 (__f2 a!4)) (__f1 a!12)))))
                (let ((a!14 (and (= (__f1 (__f2 a!4)) (__f1 a!12)) a!13)))
                (let ((a!16 (or (and a!10 (<= 0 (__f1 a!12))) a!14 a!15)))
                  (and (>= a 0)
                       (<= a 9)
                       (>= b 0)
                       (<= b 9)
                       (not (= (__f1 a!4) Timer_reaction_0))
                       (= (__f1 a!8) Timer_reaction_0)
                       (not a!9)
                       a!16))))))))))
                :skolemid _skolem_12
                :qid _exists_4))))
  (and a!1 a!2 (not a!3))))
(assert (forall ((i Int) (j Int))
  (! (let ((a!1 (ite (= i 8)
                     (__f9 initial_2_trace)
                     (ite (= i 9)
                          (__f10 initial_2_trace)
                          (_tuple_1 NULL (_tuple_0 (- 1) 0) (_tuple_2 0)))))
           (a!5 (ite (= j 8)
                     (__f9 initial_2_trace)
                     (ite (= j 9)
                          (__f10 initial_2_trace)
                          (_tuple_1 NULL (_tuple_0 (- 1) 0) (_tuple_2 0))))))
     (let ((a!2 (ite (= i 5)
                     (__f6 initial_2_trace)
                     (ite (= i 6)
                          (__f7 initial_2_trace)
                          (ite (= i 7) (__f8 initial_2_trace) a!1))))
           (a!6 (ite (= j 5)
                     (__f6 initial_2_trace)
                     (ite (= j 6)
                          (__f7 initial_2_trace)
                          (ite (= j 7) (__f8 initial_2_trace) a!5)))))
     (let ((a!3 (ite (= i 2)
                     (__f3 initial_2_trace)
                     (ite (= i 3)
                          (__f4 initial_2_trace)
                          (ite (= i 4) (__f5 initial_2_trace) a!2))))
           (a!7 (ite (= j 2)
                     (__f3 initial_2_trace)
                     (ite (= j 3)
                          (__f4 initial_2_trace)
                          (ite (= j 4) (__f5 initial_2_trace) a!6)))))
     (let ((a!4 (__f2 (ite (= i 0)
                           (__f1 initial_2_trace)
                           (ite (= i 1) (__f2 initial_2_trace) a!3))))
           (a!8 (__f2 (ite (= j 0)
                           (__f1 initial_2_trace)
                           (ite (= j 1) (__f2 initial_2_trace) a!7)))))
     (let ((a!9 (and (<= 0 (__f1 a!4)) (not (<= 0 (__f1 a!8)))))
           (a!10 (and (= (__f1 a!4) (__f1 a!8))
                      (not (<= (__f2 a!8) (__f2 a!4))))))
     (let ((a!11 (or a!9 a!10 (not (<= (__f1 a!8) (__f1 a!4))))))
       (or (not (<= j i))
           (not (and (>= i 0) (<= i 9) (>= j 0) (<= j 9)))
           (not a!11))))))))
     :skolemid _skolem_13
     :qid _forall_8)))
(assert (let ((a!1 (= (__f1 (__f3 (__f1 initial_2_trace))) 0))
      (a!3 (forall ((i Int))
             (! (let ((a!1 (ite (= i 8)
                                (__f9 initial_2_trace)
                                (ite (= i 9)
                                     (__f10 initial_2_trace)
                                     (_tuple_1 NULL
                                               (_tuple_0 (- 1) 0)
                                               (_tuple_2 0)))))
                      (a!5 (exists ((j Int))
                             (! (let ((a!1 (ite (= j 8)
                                                (__f9 initial_2_trace)
                                                (ite (= j 9)
                                                     (__f10 initial_2_trace)
                                                     (_tuple_1 NULL
                                                               (_tuple_0 (- 1)
                                                                         0)
                                                               (_tuple_2 0)))))
                                      (a!5 (ite (= i 8)
                                                (__f9 initial_2_trace)
                                                (ite (= i 9)
                                                     (__f10 initial_2_trace)
                                                     (_tuple_1 NULL
                                                               (_tuple_0 (- 1)
                                                                         0)
                                                               (_tuple_2 0))))))
                                (let ((a!2 (ite (= j 5)
                                                (__f6 initial_2_trace)
                                                (ite (= j 6)
                                                     (__f7 initial_2_trace)
                                                     (ite (= j 7)
                                                          (__f8 initial_2_trace)
                                                          a!1))))
                                      (a!6 (ite (= i 5)
                                                (__f6 initial_2_trace)
                                                (ite (= i 6)
                                                     (__f7 initial_2_trace)
                                                     (ite (= i 7)
                                                          (__f8 initial_2_trace)
                                                          a!5)))))
                                (let ((a!3 (ite (= j 2)
                                                (__f3 initial_2_trace)
                                                (ite (= j 3)
                                                     (__f4 initial_2_trace)
                                                     (ite (= j 4)
                                                          (__f5 initial_2_trace)
                                                          a!2))))
                                      (a!7 (ite (= i 2)
                                                (__f3 initial_2_trace)
                                                (ite (= i 3)
                                                     (__f4 initial_2_trace)
                                                     (ite (= i 4)
                                                          (__f5 initial_2_trace)
                                                          a!6)))))
                                (let ((a!4 (ite (= j 0)
                                                (__f1 initial_2_trace)
                                                (ite (= j 1)
                                                     (__f2 initial_2_trace)
                                                     a!3)))
                                      (a!8 (__f2 (ite (= i 0)
                                                      (__f1 initial_2_trace)
                                                      (ite (= i 1)
                                                           (__f2 initial_2_trace)
                                                           a!7)))))
                                (let ((a!9 (ite (<= 0 (__f1 a!8))
                                                (_tuple_0 (+ 1000000000
                                                             (__f1 a!8))
                                                          0)
                                                (_tuple_0 (- 1) 0))))
                                  (and (not (<= j i))
                                       (<= j 9)
                                       (= (__f2 a!4) a!9)
                                       (= (__f1 a!4) Timer_reaction_0)))))))
                                :skolemid _skolem_14
                                :qid _exists_5))))
                (let ((a!2 (ite (= i 5)
                                (__f6 initial_2_trace)
                                (ite (= i 6)
                                     (__f7 initial_2_trace)
                                     (ite (= i 7) (__f8 initial_2_trace) a!1)))))
                (let ((a!3 (ite (= i 2)
                                (__f3 initial_2_trace)
                                (ite (= i 3)
                                     (__f4 initial_2_trace)
                                     (ite (= i 4) (__f5 initial_2_trace) a!2)))))
                (let ((a!4 (ite (= i 0)
                                (__f1 initial_2_trace)
                                (ite (= i 1) (__f2 initial_2_trace) a!3))))
                (let ((a!6 (or (not (= (__f1 a!4) Timer_reaction_0)) a!5))
                      (a!7 (not (<= 0 (__f1 (__f2 a!4)))))
                      (a!8 (not (<= (__f2 (__f2 a!4)) 0)))
                      (a!10 (not (<= (__f1 (__f2 a!4)) initial_1_start))))
                (let ((a!9 (and (= (__f1 (__f2 a!4)) initial_1_start) a!8)))
                (let ((a!11 (and a!6
                                 (or (and a!7 (<= 0 initial_1_start))
                                     a!9
                                     a!10
                                     (= (__f2 a!4) (_tuple_0 initial_1_start 0))))))
                  (or (not (and (>= i 0) (<= i 6))) a!11))))))))
                :skolemid _skolem_15
                :qid _forall_9))))
(let ((a!2 (and (= initial_1_start 0)
                (= (__f1 (__f1 initial_2_trace)) NULL)
                (= (__f2 (__f1 initial_2_trace)) (_tuple_0 0 0))
                a!1)))
  (not (or (not a!2) a!3)))))


(check-sat)
(get-info :all-statistics)
(get-model)
